p cnf 23 7
e 1 0
a 2 3 4 0
e 5 0
a 6 0
e 7 0
a 8 9 10 11 0
e 12 13 14 15 16 17 0
a 18 0
e 19 20 21 0
a 22 23 0
11 -5 0
15 -17 -21 14 2 0
14 1 -5 9 0
-15 -5 -22 -11 0
-6 -13 0
22 -18 -23 17 0
-10 -21 -20 15 -19 0
